c --- [ banner ] -------------------------------------------------------------
c 
c CaDiCaL Radically Simplified CDCL SAT Solver
c Copyright (c) 2016-2021 A. Biere, M. Fleury, N. Froleyks
c 
c Version 1.5.2 a5f15211db36c3956764e18194dd5bd63bf3b5e6
c g++ (GCC) 9.3.0 -Wall -Wextra -O3 -DNDEBUG
c Fri Oct 21 01:27:37 EDT 2022 Linux gra-login3 3.10.0-1160.66.1.el7.x86_64 x86_64
c 
c --- [ limit ] --------------------------------------------------------------
c 
c setting conflict limit to 200000 conflicts (due to '200000')
c 
c --- [ parsing input ] ------------------------------------------------------
c 
c reading DIMACS file from '33.cubes4785.adj'
c opening file to read '33.cubes4785.adj'
c found 'p cnf 6160 1595484' header
c parsed 1595484 clauses in 19.61 seconds process time
c closing file '33.cubes4785.adj'
c after reading 1457566838 bytes 1390.0 MB
c 
c --- [ options ] ------------------------------------------------------------
c 
c all options are set to their default value
c 
c --- [ solving ] ------------------------------------------------------------
c 
c time measured in process time since initialization
c 
c  seconds    reductions  redundant   irredundant
c          MB     restarts       trail       variables
c            level   conflicts       glue         remaining
c 
c * 19.61 1378  0 0   0    0    0  0% 0 1595422 2369 38%
c { 20.29 1417  0 0   0    0    0  0% 0 1595422 2369 38%
c i 23.11 1492 224 0   5  107   78 26% 9 1595422 2367 38%
c i 23.94 1495 199 0   9  130   99 26% 14 1595422 2366 38%
c i 24.05 1497 198 0  10  132   99 26% 14 1595422 2324 38%
c i 24.68 1500 166 0  21  168  125 26% 14 1595422 2309 37%
c i 25.44 1501 152 0  27  200  154 26% 16 1595422 2308 37%
c i 25.72 1502 141 0  33  227  178 27% 19 1595422 2307 37%
c i 25.74 1502 139 0  34  231  180 27% 19 1595422 2306 37%
c i 25.96 1504 129 0  42  257  202 27% 19 1595422 2305 37%
c i 25.98 1504 128 0  43  259  203 27% 19 1595422 2304 37%
c i 26.16 1504 119 0  45  286  223 27% 19 1595422 2303 37%
c - 30.02 1450 117 1  46  300  234 27% 20 344545 2303 37%
c i 30.61 1450 106 1  54  349  266 27% 19 344545 2302 37%
c i 30.83 1450 104 1  55  362  276 27% 20 344545 2301 37%
c i 31.45 1451 105 1  68  425  332 27% 26 344545 2300 37%
c i 31.59 1451 103 1  71  436  342 27% 26 344545 2299 37%
c i 31.62 1451 103 1  72  439  344 27% 26 344545 2298 37%
c i 31.87 1451 103 1  79  467  368 27% 28 344545 2297 37%
c i 31.98 1451 103 1  81  478  378 27% 29 344545 2296 37%
c 
c  seconds     reductions  redundant   irredundant
c          MB      restarts       trail       variables
c             level   conflicts       glue         remaining
c 
c i 32.03 1451 101 1  84  487  385 27% 28 344545 2295 37%
c i 32.20 1451 97 1  90  514  406 28% 28 344545 2294 37%
c i 32.21 1451 97 1  90  515  406 28% 28 344545 2293 37%
c i 32.33 1451 90 1  90  571  449 28% 27 344545 2292 37%
c i 32.35 1451 89 1  90  580  457 28% 27 344545 2291 37%
c i 32.45 1451 86 1  90  609  479 28% 27 344545 2290 37%
c i 32.75 1451 84 1  94  661  519 28% 27 344545 2289 37%
c i 33.01 1451 83 1  94  680  537 28% 27 344545 2288 37%
c i 33.11 1451 82 1  94  700  556 28% 27 344545 2287 37%
c i 33.15 1451 81 1  94  722  572 28% 27 344545 2286 37%
c i 33.19 1451 80 1  94  741  589 28% 27 344545 2285 37%
c i 33.23 1451 79 1  94  748  594 28% 27 344545 2284 37%
c i 33.23 1451 79 1  94  749  594 28% 27 344545 2283 37%
c i 33.34 1451 79 1  94  763  607 28% 26 344545 2282 37%
c i 33.41 1451 78 1  94  768  610 28% 26 344545 2281 37%
c i 33.58 1451 75 1  94  824  655 28% 26 344545 2280 37%
c i 33.61 1451 74 1  94  842  671 28% 26 344545 2279 37%
c i 33.61 1451 74 1  94  843  671 28% 26 344545 2278 37%
c i 33.80 1451 68 1  94  974  778 29% 25 344545 2277 37%
c } 33.85 1451 67 1  97 1000  802 29% 25 344545 2277 37%
c 
c  seconds    reductions  redundant  irredundant
c          MB     restarts       trail      variables
c            level   conflicts       glue        remaining
c 
c [ 33.85 1451  0 1  97 1000  802  0% 0 344545 2277 37%
c O 33.86 1451 14 1  97 1002  803 21% 12 344545 2277 37%
c i 33.86 1451 14 1  97 1002  803 21% 12 344545 2226 36%
c i 34.10 1451 15 1  97 1010  810 31% 7 344545 2225 36%
c i 34.17 1451 18 1  97 1020  819 32% 9 344545 2224 36%
c i 34.23 1451 21 1  97 1031  829 32% 12 344545 2223 36%
c i 34.25 1451 22 1  97 1040  837 32% 13 344545 2222 36%
c i 34.48 1451 37 1  97 1123  901 31% 24 344545 2221 36%
c - 35.30 1590 34 2  97 1224  882 31% 24 343653 2221 36%
c i 35.73 1590 28 2  97 1591 1174 32% 22 343653 2220 36%
c i 35.76 1590 28 2  97 1638 1214 32% 22 343653 2219 36%
c i 35.80 1590 28 2  97 1718 1274 32% 22 343653 2218 36%
c i 35.95 1590 27 2  98 2047 1525 32% 22 343653 2217 36%
c - 36.60 1589 26 3  98 2608 1457 32% 22 343641 2217 36%
c ] 37.13 1589 25 3  98 3001 1743 52% 21 343641 2217 36%
c { 37.13 1589 67 3  98 3001 1743 80% 25 343641 2217 36%
c F 37.15 1589 67 3  98 3003 1745 80% 25 343641 2217 36%
c i 37.36 1589 66 3  98 3035 1770 78% 25 343641 2216 36%
c i 37.60 1589 57 3  98 3373 2026 72% 25 343641 2215 36%
c i 37.74 1589 51 3  98 3720 2288 67% 24 343641 2214 36%
c 
c  seconds    reductions  redundant   irredundant
c          MB     restarts       trail       variables
c            level   conflicts       glue         remaining
c 
c i 37.79 1589 49 3  98 3846 2379 66% 24 343641 2213 36%
c i 38.55 1589 48 3 122 3996 2499 64% 24 343641 2212 36%
c i 39.81 1589 51 3 138 4105 2593 63% 25 343641 2211 36%
c i 41.47 1589 53 3 169 4244 2713 61% 26 343641 2210 36%
c - 43.70 1453 54 4 209 4451 2003 60% 27 343620 2210 36%
c i 44.18 1340 53 4 211 4619 2139 59% 26 343620 2209 36%
c i 44.19 1340 53 4 211 4640 2153 59% 26 343620 2208 36%
c p 52.34 1340 49 4 211 5002 5626 57% 25 343600 2173 35%
c d 52.81 1340 49 4 211 5002 5597 57% 25 343519 2170 35%
c # 55.58 1340 46 4 261 6005 6332 55% 26 343519 2170 35%
c - 57.28 1471 43 5 279 6755 2700 54% 25 343519 2170 35%
c } 59.25 1471 45 5 321 7001 2906 54% 25 343519 2170 35%
c [ 59.25 1471 25 5 321 7001 2906 52% 21 343519 2170 35%
c - 66.30 1340 74 6 323 9521 3328 44% 54 343519 2170 35%
c I 67.52 1340 77 6 323 10008 3683 44% 56 343519 2170 35%
c - 77.66 1471 84 7 325 12749 4156 44% 62 343519 2170 35%
c ] 81.62 1471 88 7 326 15003 5870 44% 66 343519 2170 35%
c { 81.62 1471 45 7 326 15003 5870 54% 25 343519 2170 35%
c 2 81.70 1471 45 7 327 15003 6870 54% 25 343518 2170 35%
c p 84.13 1471 45 7 327 15003 9292 54% 25 343518 2170 35%
c 
c  seconds    reductions   redundant   irredundant
c          MB     restarts        trail       variables
c            level    conflicts       glue         remaining
c 
c B 84.39 1471 45 7 328 15009 9298 54% 25 343518 2170 35%
c - 87.62 1340 40 8 343 16436 4780 52% 24 343518 2170 35%
c s 90.48 1340 35 8 351 18792 6217 52% 23 341564 2170 35%
c v 94.67 1340 35 8 351 18792 6217 52% 23 341548 2170 35%
c w 94.81 1340 35 8 351 18792 6211 52% 23 341548 2170 35%
c t 94.82 1340 35 8 351 18792 6209 52% 23 341537 2170 35%
c e 96.14 1342 35 8 351 18792 5999 52% 23 339382 919 15%
c s 96.28 1342 35 8 351 18792 5997 52% 23 337983 919 15%
c - 99.82 1342 32 9 351 20584 5105 72% 22 337983 919 15%
c W 100.49 1342 32 9 351 21011 5429 72% 21 337983 919 15%
c - 104.04 1342 28 10 406 25170 5007 72% 20 337983 919 15%
c F 113.39 1342 28 10 575 28012 7031 71% 20 337983 919 15%
c 3 122.71 1342 29 10 849 30003 9238 71% 20 337983 919 15%
c p 124.86 1342 29 10 849 30003 10884 71% 20 337983 919 15%
c - 126.34 1342 29 11 860 30216 6357 71% 20 337983 919 15%
c } 127.63 1342 29 11 860 31004 6851 70% 20 337983 919 15%
c [ 127.63 1342 88 11 860 31004 6851 107% 66 337983 919 15%
c - 132.38 1342 68 12 863 35720 6719 93% 52 337983 919 15%
c B 132.80 1342 67 12 863 36014 6929 92% 52 337983 919 15%
c - 136.65 1342 60 13 866 41685 8053 86% 47 337983 919 15%
c 
c  seconds     reductions     redundant   irredundant
c           MB      restarts         trail       variables
c             level     conflicts        glue        remaining
c 
c W 139.66 1342 57 13 867 45016 10760 83% 45 337983 919 15%
c - 141.99 1342 53 14 868 48106 8676 82% 42 337983 919 15%
c p 145.10 1342 52 14 868 50003 12574 81% 41 337983 919 15%
c s 147.07 1342 49 14 868 52888 14669 80% 39 336901 919 15%
c v 151.85 1342 49 14 868 52888 14669 80% 39 336885 919 15%
c w 152.07 1342 49 14 868 52888 14664 80% 39 336885 919 15%
c t 152.08 1342 49 14 868 52888 14663 80% 39 336885 919 15%
c e 153.36 1342 49 14 868 52888 14655 80% 39 336881 915 15%
c s 153.54 1342 49 14 868 52888 14654 80% 39 335813 915 15%
c - 156.80 1342 47 15 869 54986 8912 79% 38 335813 915 15%
c O 156.86 1342 47 15 869 55017 8938 79% 38 335813 915 15%
c ] 157.47 1342 46 15 870 56059 9636 79% 37 335813 915 15%
c 1 157.47 1342 46 15 870 56059 9636 79% 37 335813 915 15%
c 
c --- [ writing output ] -----------------------------------------------------
c 
c writing simplified CNF to DIMACS file 'simp/33.cubes4785.adj.simp1'
c * 157.47 1342 46 15 870 56059 9636 79% 37 335813 915 15%
c opening file to write 'simp/33.cubes4785.adj.simp1'
c writing 'p cnf 6160 335813' header
c closing file 'simp/33.cubes4785.adj.simp1'
c after writing 149945274 bytes 143.0 MB
c wrote 335813 clauses in 1.17 seconds process time
c 
c --- [ writing extension ] --------------------------------------------------
c 
c writing extension stack to 'simp/33.cubes4785.adj.ext1'
c opening file to write 'simp/33.cubes4785.adj.ext1'
c closing file 'simp/33.cubes4785.adj.ext1'
c after writing 82117 bytes 0.1 MB
c wrote 3712 witnesses in 0.00 seconds process time
c 
c --- [ result ] -------------------------------------------------------------
c 
s SATISFIABLE
c 
c --- [ run-time profiling ] -------------------------------------------------
c 
c process time taken by individual solving procedures
c (percentage relative to process time for solving)
c 
c       107.96   78.31% search
c        61.43   44.56% unstable
c        44.63   32.37% stable
c        29.90   21.69% simplify
c        19.61   14.22% parse
c        13.68    9.93% probe
c         9.25    6.71% vivify
c         4.90    3.55% elim
c         1.22    0.88% walk
c         0.68    0.50% lucky
c         0.62    0.45% subsume
c         0.20    0.14% ternary
c   =================================
c       137.87   86.90% solve
c 
c last line shows process time for solving
c (percentage relative to total process time)
c 
c --- [ statistics ] ---------------------------------------------------------
c 
c chronological:              9318        16.62 %  of conflicts
c conflicts:                 56059       406.62    per second
c decisions:                116634       846.00    per second
c eliminated:                 1255        20.37 %  of all variables
c fixed:                       836        13.57 %  of all variables
c learned:                   54940        98.00 %  per conflict
c learned_lits:           10603228       100.00 %  learned literals
c minimized:                     0         0.00 %  learned literals
c shrunken:                5949712        56.11 %  learned literals
c minishrunken:            1004197         9.47 %  learned literals
c propagations:            5123377         0.04 M  per second
c reduced:                   31163        55.59 %  per conflict
c rephased:                     10      5605.90    interval
c restarts:                    870        64.44    interval
c stabilizing:                   3        62.54 %  of conflicts
c substituted:                  10         0.16 %  of all variables
c subsumed:                  19588         0.56 %  of all clauses
c strengthened:              10345         0.30 %  of all clauses
c ternary:                    3146         0.69 %  of resolved
c vivified:                     55         0.00 %  of all clauses
c walked:                        2     28029.50    interval
c weakened:                   2876         3.00    average size
c 
c seconds are measured in process time for solving
c 
c --- [ resources ] ----------------------------------------------------------
c 
c total process time since initialization:       158.64    seconds
c total real time since initialization:          160.50    seconds
c maximum resident set size of process:         1727.58    MB
c 
c --- [ shutting down ] ------------------------------------------------------
c 
c exit 10
WARNING! DIMACS header mismatch: wrong number of variables.
============================[ Problem Statistics ]=============================
|                                                                             |
|  Number of variables:          3756                                         |
|  Number of clauses:          335813                                         |
|  Parse time:                   1.92 s                                       |
|  Simplification time:          0.04 s                                       |
|                                                                             |
============================[ Search Statistics ]====================================================
| Conflicts |          ORIGINAL         |          LEARNT          | Num Sols |      SUBGRAPHS      |
|           |    Vars  Clauses Literals |    Limit  Clauses Lit/Cl |          | Canonical Noncanon. |
=====================================================================================================
|       852 |    3662   336565 32446734 |     2000      852     23 |        0 |       195       752 |
|      1507 |    3662   337070 32456255 |     2000     1507     26 |        0 |       415      1257 |
|      1734 |    3662   337072 32456270 |     2000     1734     34 |        0 |       420      1259 |
|      2086 |    3662   337087 32456479 |     3604     1090     31 |        0 |       432      1274 |
|      2609 |    3662   337104 32456755 |     3604     1613     44 |        0 |       450      1291 |
|      3425 |    3662   337161 32457753 |     3604     2429     54 |        0 |       485      1348 |
|      4578 |    3662   337175 32457974 |     3604     3582     62 |        0 |       493      1362 |
|      6324 |    3662   337213 32458898 |     5003     3527     59 |        0 |       549      1400 |
|      9147 |    3662   337474 32464552 |     6305     3852     51 |        0 |       644      1661 |
|     13276 |    3662   337759 32469184 |     7562     4838     49 |        0 |       707      1946 |
|     19504 |    3662   338221 32476351 |     8781     7285     59 |        0 |       882      2408 |
|     28352 |    3662   338420 32480461 |    11200     6752     49 |        0 |       968      2607 |
|     41362 |    3662   338456 32480979 |    13603     7965     50 |        0 |       988      2643 |
|     60869 |    3662   338502 32481837 |    16010    13279     58 |        0 |      1006      2689 |
|     94518 |    3662   342959 32558420 |    20812    11330     42 |        0 |      2485      7146 |
|    140346 |    3662   344998 32592913 |    24408    24154     65 |        0 |      2964      9185 |
|    207267 |    3662   346235 32613913 |    30417    24084     72 |        0 |      3408     10422 |
|    308864 |    3662   349306 32663278 |    37614    25478     54 |        0 |      4330     13493 |
|    458772 |    3662   351425 32700753 |    46009    31181     60 |        0 |      4954     15612 |
|    684915 |    3662   355885 32772316 |    56809    28724     41 |        0 |      6177     20072 |
|   1021091 |    3662   359536 32834631 |    68813    53904     62 |        0 |      7498     23723 |
|   1525475 |    3630   213362 19097110 |    84396    64271     71 |        2 |      9361     29317 |
|   2277598 |    3630   213857 19123600 |   103614    69212     56 |        2 |     10250     33258 |
|   3413895 |    3630   227880 19335988 |   126416   118711     69 |        2 |     13291     47281 |
|   5110119 |    3621   238385 19496435 |   147524   124843     63 |        3 |     16387     60093 |
=====================================================================================================
Number of solutions   : 3
Canonical subgraphs   : 17649          (8 /sec)
          order  3    : 1              (200000 /sec)
          order  4    : 1              (500000 /sec)
          order  5    : 1              (200000 /sec)
          order  6    : 1              (55556 /sec)
          order  7    : 1              (8772 /sec)
          order  8    : 2              (1366 /sec)
          order  9    : 7              (353 /sec)
          order 10    : 25             (95 /sec)
          order 11    : 111            (31 /sec)
          order 12    : 552            (9 /sec)
          order 13    : 1346           (8 /sec)
          order 14    : 4821           (8 /sec)
          order 15    : 5577           (8 /sec)
          order 16    : 2515           (10 /sec)
          order 17    : 1588           (9 /sec)
          order 18    : 746            (7 /sec)
          order 19    : 204            (9 /sec)
          order 20    : 81             (11 /sec)
          order 21    : 66             (12 /sec)
          order 22    : 3              (1 /sec)
Noncanonical subgraphs: 64586          (129 /sec)
          order  3    : 0              (-nan /sec)
          order  4    : 0              (-nan /sec)
          order  5    : 0              (-nan /sec)
          order  6    : 0              (-nan /sec)
          order  7    : 0              (-nan /sec)
          order  8    : 0              (-nan /sec)
          order  9    : 0              (-nan /sec)
          order 10    : 0              (-nan /sec)
          order 11    : 0              (-nan /sec)
          order 12    : 0              (-nan /sec)
          order 13    : 3140           (6504 /sec)
          order 14    : 18993          (1479 /sec)
          order 15    : 12411          (554 /sec)
          order 16    : 29097          (66 /sec)
          order 17    : 661            (66 /sec)
          order 18    : 216            (30 /sec)
          order 19    : 0              (-nan /sec)
          order 20    : 0              (-nan /sec)
          order 21    : 0              (-nan /sec)
Canonicity checking   : 2145.64 s
Noncanonicity checking: 501.16 s
Total canonicity time : 2646.8 s
database reductions   : 137
restarts              : 9468
conflicts             : 5936121        (946 /sec)
decisions             : 7277664        (0.00 % random) (1159 /sec)
propagations          : 297725442      (47426 /sec)
conflict literals     : 569265885      (56.66 % deleted)
actual reward         : 0.249848
Memory used           : 470.00 MB
CPU time              : 6277.65 s

UNSATISFIABLE
